
n_res = 6;
rcap = [20, 19, 18, 19, 1636, 1615];
rtype = [1, 1, 1, 1, 2, 2];
n_tasks = 100;
modes =  [{1, 2, 3}, {4, 5, 6}, {7, 8, 9}, {10, 11, 12}, {13, 14, 15}, {16, 17, 18}, {19, 20, 21}, {22, 23, 24}, {25, 26, 27}, {28, 29, 30}, {31, 32, 33}, {34, 35, 36}, {37, 38, 39}, {40, 41, 42}, {43, 44, 45}, {46, 47, 48}, {49, 50, 51}, {52, 53, 54}, {55, 56, 57}, {58, 59, 60}, {61, 62, 63}, {64, 65, 66}, {67, 68, 69}, {70, 71, 72}, {73, 74, 75}, {76, 77, 78}, {79, 80, 81}, {82, 83, 84}, {85, 86, 87}, {88, 89, 90}, {91, 92, 93}, {94, 95, 96}, {97, 98, 99}, {100, 101, 102}, {103, 104, 105}, {106, 107, 108}, {109, 110, 111}, {112, 113, 114}, {115, 116, 117}, {118, 119, 120}, {121, 122, 123}, {124, 125, 126}, {127, 128, 129}, {130, 131, 132}, {133, 134, 135}, {136, 137, 138}, {139, 140, 141}, {142, 143, 144}, {145, 146, 147}, {148, 149, 150}, {151, 152, 153}, {154, 155, 156}, {157, 158, 159}, {160, 161, 162}, {163, 164, 165}, {166, 167, 168}, {169, 170, 171}, {172, 173, 174}, {175, 176, 177}, {178, 179, 180}, {181, 182, 183}, {184, 185, 186}, {187, 188, 189}, {190, 191, 192}, {193, 194, 195}, {196, 197, 198}, {199, 200, 201}, {202, 203, 204}, {205, 206, 207}, {208, 209, 210}, {211, 212, 213}, {214, 215, 216}, {217, 218, 219}, {220, 221, 222}, {223, 224, 225}, {226, 227, 228}, {229, 230, 231}, {232, 233, 234}, {235, 236, 237}, {238, 239, 240}, {241, 242, 243}, {244, 245, 246}, {247, 248, 249}, {250, 251, 252}, {253, 254, 255}, {256, 257, 258}, {259, 260, 261}, {262, 263, 264}, {265, 266, 267}, {268, 269, 270}, {271, 272, 273}, {274, 275, 276}, {277, 278, 279}, {280, 281, 282}, {283, 284, 285}, {286, 287, 288}, {289, 290, 291}, {292, 293, 294}, {295, 296, 297}, {298, 299, 300}];
succ =  [{19, 18, 13, 12, 11, 8, 6}, {19, 18, 13, 12, 7, 6}, {23, 18, 17, 13, 12, 11}, {20, 9, 7}, {23, 19, 17, 12, 11}, {38, 27, 24, 23, 20, 17, 16}, {31, 27, 17, 11}, {38, 20, 17, 16}, {38, 31, 27, 26, 24, 16}, {38, 28, 25, 22, 21, 20}, {38, 26, 24, 16}, {38, 33, 32, 31, 30, 28, 25, 21}, {32, 31, 30, 28, 27, 25, 21}, {36, 33, 31, 29, 28, 27, 26, 25, 24}, {38, 36, 29, 28, 24, 20}, {36, 33, 29, 28, 25, 22}, {33, 30, 25, 21}, {39, 35, 34, 32, 30, 28, 26}, {44, 41, 39, 33, 32, 31, 29}, {39, 34, 31, 30, 26}, {46, 36, 29, 26}, {46, 45, 44, 41, 34, 32, 30}, {39, 36, 34, 31, 28}, {53, 49, 45, 44, 37, 35, 34}, {60, 53, 50, 47, 46, 45, 44, 39, 35}, {49, 47, 45, 44, 41, 40, 37}, {49, 45, 44, 43, 39, 34}, {51, 50, 47, 46, 45, 44, 37}, {64, 45, 34}, {63, 62, 50, 37}, {60, 53, 52, 50, 49, 47, 46, 45}, {64, 60, 57, 51, 49, 48, 40}, {62, 53, 37}, {62, 60, 51, 50, 47, 42}, {63, 57, 43, 42, 41}, {62, 59, 49, 47, 43}, {60, 57, 43, 42}, {62, 57, 55, 54, 52, 51, 50, 48}, {64, 63, 62, 61, 58, 57, 56, 55, 54, 48}, {79, 66, 63, 62, 59, 56, 54, 53, 52}, {66, 59, 58, 56, 55, 54, 52, 51}, {56, 55, 54, 52, 48}, {70, 67, 66, 64, 58, 56, 52}, {70, 62, 61, 58, 57, 55}, {61, 58, 57, 55, 54}, {80, 68, 67, 62, 57, 54}, {79, 66, 63, 55, 54}, {80, 79, 69, 68, 67, 66, 59}, {80, 77, 70, 67, 66, 56}, {80, 77, 58, 56}, {80, 79, 77, 74, 73, 70, 69, 67, 65}, {73, 69, 68, 61}, {74, 69, 55}, {84, 81, 74, 73, 71, 70, 69}, {84, 80, 76, 73, 68, 67}, {76, 74, 73, 72, 68, 65}, {84, 79, 74, 69, 66}, {84, 81, 79, 74, 72, 71, 69}, {76, 74, 73, 72, 65}, {80, 76, 70, 65}, {77, 74, 72, 65}, {77, 73, 65}, {77, 74, 65}, {90, 85, 84, 83, 81, 80, 77, 76, 74, 73}, {87, 86, 84, 81, 78, 75, 71}, {87, 86, 81, 78, 76, 72, 71}, {87, 81, 78, 72, 71}, {81, 78, 75, 71}, {91, 88, 87, 85, 78, 76, 75}, {87, 85, 78, 75, 72}, {92, 91, 90, 89, 88, 85, 83, 82}, {99, 90, 89, 88, 82}, {88, 86, 78}, {92, 88, 87, 82}, {92, 83, 82}, {98, 97, 92, 89}, {98, 97, 92, 88}, {99, 96, 82}, {97, 93, 86}, {88, 82}, {96, 82}, {98, 97, 95, 94}, {99, 96, 95, 94}, {100, 97, 96, 95}, {97, 96, 93}, {96, 94, 92}, {99, 96, 94}, {96, 94}, {100, 94}, {97, 94}, {95, 94}, {95}, {95}, {}, {}, {}, {}, {}, {}, {}];
n_opt = 300;
dur = [8, 13, 30, 1, 12, 24, 13, 21, 23, 22, 23, 30, 3, 16, 24, 4, 6, 21, 1, 9, 17, 7, 18, 30, 6, 20, 25, 1, 13, 23, 11, 12, 14, 15, 29, 30, 2, 22, 29, 9, 18, 27, 25, 27, 30, 7, 9, 26, 7, 21, 28, 6, 9, 18, 10, 26, 30, 9, 18, 23, 4, 10, 30, 5, 6, 28, 10, 20, 25, 14, 18, 23, 11, 14, 30, 21, 23, 24, 20, 25, 26, 8, 13, 20, 26, 27, 28, 1, 23, 27, 3, 11, 13, 6, 16, 27, 2, 21, 27, 7, 28, 29, 8, 12, 18, 2, 13, 28, 14, 23, 26, 20, 23, 26, 1, 22, 25, 16, 17, 24, 7, 13, 28, 8, 23, 25, 11, 18, 24, 1, 6, 30, 4, 17, 25, 13, 21, 26, 3, 4, 20, 5, 7, 16, 3, 15, 29, 4, 15, 25, 5, 6, 12, 1, 17, 25, 18, 20, 21, 24, 27, 28, 11, 25, 28, 4, 12, 17, 10, 13, 14, 12, 18, 22, 11, 13, 25, 7, 9, 19, 4, 17, 26, 8, 10, 18, 11, 14, 26, 20, 22, 23, 4, 6, 19, 5, 21, 22, 3, 11, 14, 5, 14, 28, 5, 17, 28, 6, 18, 28, 12, 29, 30, 23, 26, 27, 24, 28, 29, 20, 25, 26, 10, 15, 24, 11, 22, 24, 24, 28, 30, 2, 15, 17, 15, 21, 25, 11, 12, 15, 17, 21, 30, 14, 17, 25, 6, 7, 9, 5, 14, 18, 1, 3, 25, 14, 16, 29, 5, 6, 16, 9, 15, 29, 7, 12, 26, 5, 9, 25, 14, 15, 21, 9, 21, 29, 2, 9, 23, 4, 9, 21, 2, 5, 14, 3, 17, 23, 1, 5, 18, 1, 12, 16, 5, 7, 29, 5, 7, 27];
rreq = [|3, 2, 2, 4, 2, 2, 2, 2, 2, 4, 3, 3, 1, 1, 1, 4, 3, 2, 5, 3, 3, 1, 1, 1, 3, 3, 3, 5, 5, 5, 5, 2, 2, 4, 3, 2, 4, 3, 3, 3, 3, 2, 4, 4, 3, 4, 3, 3, 5, 3, 3, 2, 2, 2, 5, 4, 3, 3, 3, 3, 5, 5, 5, 3, 2, 2, 1, 1, 1, 2, 2, 2, 3, 3, 2, 4, 3, 2, 5, 4, 4, 4, 3, 3, 3, 3, 3, 2, 2, 2, 4, 3, 3, 4, 4, 4, 2, 2, 1, 4, 3, 3, 1, 1, 1, 3, 2, 2, 3, 2, 1, 5, 5, 5, 5, 4, 4, 1, 1, 1, 4, 4, 4, 3, 3, 1, 3, 3, 3, 4, 3, 2, 4, 3, 3, 4, 4, 2, 1, 1, 1, 5, 3, 3, 2, 1, 1, 5, 3, 3, 5, 5, 5, 5, 4, 4, 4, 3, 2, 3, 3, 2, 5, 3, 2, 4, 3, 3, 3, 2, 2, 4, 3, 3, 4, 4, 4, 4, 4, 4, 4, 3, 3, 5, 3, 3, 4, 2, 2, 2, 2, 2, 5, 4, 4, 4, 3, 3, 5, 3, 3, 3, 3, 3, 2, 2, 2, 4, 3, 3, 1, 1, 1, 5, 4, 4, 5, 5, 5, 3, 3, 3, 1, 1, 1, 2, 1, 1, 4, 2, 2, 5, 4, 4, 4, 3, 2, 3, 3, 3, 4, 3, 3, 2, 1, 1, 4, 3, 3, 4, 2, 2, 4, 3, 3, 5, 4, 4, 4, 3, 3, 3, 3, 3, 2, 1, 1, 5, 3, 1, 5, 5, 5, 4, 2, 1, 4, 4, 4, 4, 3, 3, 4, 3, 1, 4, 3, 3, 5, 4, 4, 5, 4, 4, 1, 1, 1, 5, 5, 5
 |5, 3, 3, 3, 3, 3, 4, 3, 2, 4, 3, 3, 2, 1, 1, 3, 3, 2, 3, 2, 2, 5, 3, 3, 3, 1, 1, 3, 2, 2, 3, 2, 2, 3, 2, 2, 3, 2, 1, 4, 4, 4, 5, 4, 3, 3, 1, 1, 5, 4, 3, 3, 1, 1, 3, 2, 2, 4, 4, 2, 4, 3, 3, 4, 2, 2, 4, 3, 3, 4, 3, 2, 3, 3, 3, 3, 2, 2, 2, 2, 2, 4, 3, 3, 4, 3, 2, 5, 4, 4, 5, 3, 3, 3, 2, 2, 3, 3, 3, 2, 2, 2, 3, 1, 1, 3, 2, 1, 2, 1, 1, 4, 2, 1, 3, 2, 1, 3, 3, 1, 3, 3, 2, 4, 4, 4, 1, 1, 1, 4, 3, 3, 3, 3, 2, 3, 3, 3, 3, 2, 2, 5, 3, 1, 2, 1, 1, 3, 1, 1, 1, 1, 1, 2, 2, 2, 4, 4, 3, 2, 2, 2, 5, 4, 3, 1, 1, 1, 5, 5, 5, 5, 2, 1, 5, 4, 2, 4, 3, 2, 2, 2, 1, 2, 2, 1, 2, 1, 1, 1, 1, 1, 3, 2, 1, 4, 4, 2, 5, 4, 4, 4, 2, 1, 3, 1, 1, 1, 1, 1, 1, 1, 1, 4, 3, 3, 1, 1, 1, 5, 4, 4, 4, 4, 3, 3, 3, 3, 3, 2, 2, 5, 4, 4, 2, 1, 1, 3, 1, 1, 4, 3, 2, 5, 4, 4, 1, 1, 1, 3, 2, 2, 4, 3, 2, 5, 2, 2, 2, 2, 1, 5, 3, 2, 2, 1, 1, 5, 5, 5, 4, 3, 2, 2, 2, 2, 4, 3, 2, 2, 1, 1, 2, 1, 1, 3, 3, 3, 4, 4, 3, 2, 2, 2, 5, 3, 3, 3, 3, 2
 |5, 4, 4, 4, 2, 2, 2, 2, 2, 4, 3, 2, 4, 4, 4, 4, 4, 4, 5, 4, 2, 4, 3, 1, 4, 3, 2, 4, 4, 4, 2, 1, 1, 3, 2, 2, 3, 2, 2, 4, 3, 2, 2, 2, 2, 4, 4, 4, 2, 2, 1, 2, 1, 1, 2, 1, 1, 4, 3, 3, 1, 1, 1, 3, 2, 1, 3, 1, 1, 2, 1, 1, 3, 3, 2, 3, 2, 2, 4, 3, 2, 3, 3, 2, 2, 2, 2, 2, 2, 2, 5, 4, 2, 4, 2, 2, 2, 2, 1, 2, 2, 2, 4, 2, 1, 4, 4, 4, 2, 1, 1, 5, 4, 3, 3, 2, 2, 5, 3, 1, 3, 2, 2, 4, 2, 2, 3, 2, 2, 3, 2, 2, 4, 3, 2, 3, 2, 2, 4, 2, 2, 1, 1, 1, 4, 4, 2, 2, 1, 1, 2, 1, 1, 1, 1, 1, 4, 4, 4, 4, 4, 3, 4, 4, 4, 4, 3, 3, 3, 3, 3, 4, 4, 3, 2, 1, 1, 2, 2, 2, 3, 3, 3, 4, 3, 2, 3, 2, 2, 1, 1, 1, 3, 3, 3, 4, 3, 3, 4, 2, 2, 1, 1, 1, 5, 2, 1, 4, 2, 2, 4, 2, 1, 1, 1, 1, 3, 2, 2, 3, 1, 1, 3, 3, 3, 4, 4, 4, 3, 3, 3, 4, 2, 2, 3, 2, 2, 2, 2, 2, 2, 2, 1, 2, 2, 2, 3, 2, 1, 4, 3, 3, 3, 3, 3, 2, 2, 2, 1, 1, 1, 3, 3, 2, 3, 3, 1, 5, 4, 4, 1, 1, 1, 4, 3, 2, 2, 2, 2, 4, 4, 4, 2, 1, 1, 5, 4, 4, 4, 4, 4, 5, 5, 5, 2, 2, 2, 5, 4, 4
 |5, 4, 3, 5, 3, 1, 2, 1, 1, 5, 3, 3, 4, 2, 2, 3, 3, 2, 1, 1, 1, 1, 1, 1, 4, 3, 3, 2, 1, 1, 5, 4, 3, 4, 2, 1, 3, 3, 2, 4, 3, 2, 5, 5, 5, 5, 4, 4, 2, 2, 2, 1, 1, 1, 4, 2, 2, 2, 2, 2, 3, 3, 2, 4, 4, 4, 4, 3, 2, 2, 1, 1, 3, 3, 3, 1, 1, 1, 3, 3, 3, 4, 4, 4, 3, 2, 2, 3, 3, 2, 4, 2, 2, 4, 4, 3, 4, 4, 4, 4, 2, 1, 4, 3, 3, 4, 4, 3, 4, 3, 2, 3, 2, 2, 4, 4, 4, 2, 2, 2, 3, 3, 3, 5, 4, 4, 4, 3, 3, 4, 4, 4, 1, 1, 1, 2, 1, 1, 4, 2, 2, 4, 3, 2, 3, 1, 1, 3, 3, 3, 5, 4, 2, 4, 3, 3, 2, 2, 2, 2, 1, 1, 3, 2, 2, 3, 2, 2, 3, 2, 2, 4, 4, 2, 5, 4, 4, 4, 4, 4, 5, 5, 5, 3, 2, 2, 3, 2, 1, 3, 3, 2, 2, 2, 2, 4, 4, 4, 2, 2, 2, 2, 2, 2, 5, 4, 3, 3, 2, 2, 1, 1, 1, 5, 3, 3, 4, 3, 2, 2, 2, 2, 3, 2, 1, 2, 1, 1, 3, 3, 3, 2, 1, 1, 3, 3, 1, 5, 3, 2, 3, 2, 2, 3, 3, 3, 4, 3, 3, 3, 3, 3, 4, 4, 2, 3, 3, 3, 3, 2, 2, 3, 2, 2, 3, 3, 3, 3, 3, 2, 5, 4, 4, 5, 4, 3, 3, 3, 3, 3, 3, 3, 3, 3, 2, 1, 1, 1, 1, 1, 1, 4, 4, 4, 2, 1, 1, 4, 3, 3
 |11, 6, 4, 24, 18, 17, 15, 11, 9, 22, 18, 15, 21, 19, 17, 22, 16, 12, 4, 2, 1, 18, 15, 8, 19, 18, 18, 8, 8, 7, 23, 21, 17, 22, 21, 15, 25, 23, 23, 27, 26, 21, 13, 12, 4, 20, 14, 10, 8, 6, 4, 27, 26, 23, 25, 16, 11, 13, 12, 5, 22, 18, 4, 14, 7, 3, 11, 11, 11, 24, 23, 23, 15, 15, 15, 30, 26, 23, 20, 12, 9, 22, 15, 3, 26, 24, 23, 13, 9, 9, 16, 7, 3, 18, 11, 5, 27, 22, 15, 21, 17, 6, 15, 14, 12, 22, 21, 21, 23, 18, 13, 20, 11, 8, 12, 10, 10, 27, 21, 14, 27, 23, 20, 14, 14, 11, 20, 19, 15, 14, 10, 8, 17, 16, 14, 18, 16, 13, 21, 21, 18, 23, 17, 8, 13, 10, 5, 15, 9, 8, 15, 10, 5, 10, 7, 7, 23, 19, 13, 12, 8, 4, 19, 16, 14, 5, 5, 5, 27, 26, 22, 29, 28, 27, 11, 10, 10, 22, 22, 18, 24, 22, 15, 11, 7, 2, 16, 16, 14, 30, 21, 18, 5, 5, 4, 24, 24, 24, 18, 12, 10, 22, 15, 3, 11, 6, 3, 20, 14, 11, 13, 12, 11, 8, 5, 4, 19, 17, 16, 24, 20, 10, 9, 3, 3, 25, 16, 8, 15, 15, 13, 29, 28, 28, 10, 10, 10, 26, 23, 20, 15, 15, 15, 2, 2, 2, 6, 6, 6, 17, 13, 12, 15, 14, 14, 30, 29, 29, 22, 15, 14, 12, 10, 8, 14, 13, 10, 12, 8, 7, 10, 5, 5, 16, 10, 10, 19, 14, 14, 26, 18, 14, 23, 21, 16, 6, 4, 2, 19, 12, 6, 15, 14, 12, 17, 13, 6, 21, 21, 13
 |20, 13, 8, 21, 18, 17, 21, 17, 13, 16, 12, 9, 18, 14, 3, 20, 18, 16, 21, 18, 14, 26, 17, 14, 24, 17, 9, 28, 25, 24, 11, 11, 7, 27, 17, 8, 10, 8, 6, 15, 14, 10, 14, 11, 5, 22, 18, 15, 27, 21, 20, 6, 5, 5, 7, 6, 6, 16, 6, 3, 7, 6, 6, 21, 15, 13, 13, 8, 8, 8, 6, 2, 25, 20, 13, 17, 9, 5, 29, 26, 24, 25, 16, 12, 2, 2, 2, 21, 13, 8, 17, 16, 6, 7, 6, 4, 29, 23, 19, 21, 20, 20, 19, 12, 4, 13, 11, 9, 19, 12, 9, 16, 13, 8, 15, 8, 4, 25, 18, 15, 21, 18, 18, 9, 7, 5, 15, 12, 5, 24, 20, 12, 16, 9, 8, 18, 15, 14, 22, 17, 13, 13, 11, 9, 2, 2, 2, 9, 7, 3, 23, 11, 9, 5, 4, 3, 15, 12, 3, 7, 7, 3, 5, 5, 4, 10, 8, 5, 22, 22, 20, 16, 10, 9, 27, 19, 14, 26, 19, 13, 18, 17, 17, 19, 17, 14, 24, 23, 19, 23, 22, 20, 22, 20, 13, 22, 15, 9, 4, 3, 2, 28, 20, 15, 23, 21, 21, 22, 20, 18, 16, 11, 8, 8, 7, 6, 28, 27, 25, 26, 24, 23, 24, 22, 21, 19, 18, 16, 25, 17, 7, 22, 17, 5, 16, 11, 9, 28, 24, 18, 28, 27, 26, 15, 10, 9, 23, 18, 11, 11, 8, 8, 28, 24, 21, 18, 7, 1, 15, 11, 5, 17, 17, 15, 12, 9, 7, 14, 13, 8, 19, 17, 17, 21, 13, 2, 16, 15, 11, 10, 10, 9, 15, 12, 12, 23, 18, 10, 24, 22, 15, 13, 9, 7, 24, 23, 16, 8, 6, 4|];